unsat
(:SPACER-cluster-out-of-gas           14
 :SPACER-concretize                   52
 :SPACER-conj                         8
 :SPACER-expand-pob-undef             81
 :SPACER-inductive-gen                210
 :SPACER-inductive-gen-weaken-fail    514
 :SPACER-inductive-gen-weaken-success 1
 :SPACER-inductive-level              5
 :SPACER-max-depth                    13
 :SPACER-max-query-lvl                13
 :SPACER-non-local-gen                7
 :SPACER-num-active-lemmas            40
 :SPACER-num-cant-abstract            1
 :SPACER-num-ctp-blocked              81
 :SPACER-num-invariants               125
 :SPACER-num-is_invariant             779
 :SPACER-num-lemma-jumped             14
 :SPACER-num-lemmas                   201
 :SPACER-num-non-lin                  45
 :SPACER-num-pobs                     186
 :SPACER-num-propagations             444
 :SPACER-num-queries                  197
 :SPACER-num-reach-queries            43
 :SPACER-num-reuse-reach-facts        32
 :SPACER-pob-out-of-gas               1
 :SPACER-subsume-failed               3
 :SPACER-subsume-pob                  8
 :SPACER-subsume-success              10
 :added-eqs                           335166
 :arith-assert-diseq                  91330
 :arith-assert-lower                  324376
 :arith-assert-upper                  248860
 :arith-bound-prop                    34614
 :arith-branch-var                    382
 :arith-conflicts                     882
 :arith-eq-adapter                    46726
 :arith-fixed-eqs                     62734
 :arith-gcd-conflicts                 20
 :arith-gcd-tests                     6030
 :arith-gomory-cuts                   140
 :arith-ineq-splits                   382
 :arith-num-rows                      256
 :arith-offset-eqs                    21700
 :arith-patches                       706
 :arith-patches_succ                  122
 :arith-pivots                        13360
 :arith-row-summations                257294
 :arith-tableau-max-columns           398
 :arith-tableau-max-rows              256
 :conflicts                           5702
 :decisions                           957930
 :del-clause                          123704
 :final-checks                        2850
 :iuc_solver.num_proxies              880
 :max-memory                          60.48
 :memory                              58.22
 :minimized-lits                      3722
 :mk-bool-var                         116736
 :mk-clause                           137870
 :num-allocs                          7175406026.00
 :num-checks                          5238
 :pool_solver.checks                  2619
 :pool_solver.checks.sat              738
 :pool_solver.checks.undef            398
 :propagations                        1567976
 :rlimit-count                        10962669
 :time                                5.90
 :time.iuc_solver.get_iuc             0.56
 :time.iuc_solver.get_iuc.hyp_reduce1 0.21
 :time.iuc_solver.get_iuc.hyp_reduce2 0.31
 :time.iuc_solver.get_iuc.learn_core  0.10
 :time.pool_solver.proof              0.09
 :time.pool_solver.smt.total          3.83
 :time.pool_solver.smt.total.sat      1.73
 :time.pool_solver.smt.total.undef    0.83
 :time.spacer.ctp                     0.03
 :time.spacer.init_rules              0.00
 :time.spacer.mbp                     0.07
 :time.spacer.solve                   5.82
 :time.spacer.solve.propagate         1.02
 :time.spacer.solve.reach             4.79
 :time.spacer.solve.reach.children    0.17
 :time.spacer.solve.reach.cluster     0.47
 :time.spacer.solve.reach.gen.global  0.22
 :time.spacer.solve.reach.gen.ind     1.66
 :time.spacer.solve.reach.is-reach    0.14)
(:max-memory   60.48
 :memory       58.22
 :num-allocs   7175406026.00
 :rlimit-count 10962669
 :time         5.90
 :total-time   5.92)
